100
237 104 397 155 67 402 918 801 766 222 537 277 173 107 215 928 829 807 801 194 310 627 732 855 881 87 606 672 506 178 474 90 935 866 548 301 909 573 883 849 509 414 599 432 162 306 813 44 47 627 281 535 472 343 998 196 413 203 633 277 356 747 321 559 905 101 62 229 766 616 238 332 178 460 43 698 896 955 735 960 19 289 967 776 411 944 621 818 294 192 445 137 382 962 332 10 45 170 784 363 
237 104 397 155 67 402 918 801 766 222 537 277 173 107 215 928 829 807 801 194 310 627 732 855 881 87 606 672 506 178 474 90 935 866 548 301 909 573 883 849 509 414 599 432 162 306 813 44 47 627 281 535 472 343 998 196 413 203 633 277 356 747 321 559 905 101 62 229 766 616 238 332 178 460 43 698 896 955 735 960 19 289 967 776 411 944 621 818 294 192 445 137 382 962 332 10 45 170 784 363 
23881
